201
546
350
67
263
86
109
250
63
280
211
212
527
88
95
448
219
209
101
184
114
229
129
62
68
131
120
413
239
115
131
159
65
285
97
119
126
192
209
197
69
72
131
78
175
148
141
224
92
105
107
345
211
196
318
231
157
202
123
92
112
87
208
111
120
291
207
88
86
424
248
84
261
72
184
271
225
127
222
105
64
166
86
169
117
121
92
116
214
140
138
359
58
179
284
157
99
177
252
67
